networks/zoo_38_342/zoo_38_342-lower.sol
<?xml version = "1.0" encoding="UTF-8" standalone="yes"?>
<CPLEXSolution version="1.2">
 <header
   problemName="networks/zoo_38_342/zoo_38_342-lower.lp"
   solutionName="incumbent"
   solutionIndex="-1"
   objectiveValue="19"
   solutionTypeValue="3"
   solutionTypeString="primal"
   solutionStatusValue="101"
   solutionStatusString="integer optimal solution"
   solutionMethodString="mip"
   primalFeasible="1"
   dualFeasible="1"
   MIPNodes="0"
   MIPIterations="865"
   writeLevel="3"/>
 <quality
   epInt="1.0000000000000001e-05"
   epRHS="9.9999999999999995e-07"
   maxIntInfeas="0"
   maxPrimalInfeas="0"
   maxX="1"
   maxSlack="1"/>
 <variables>
  <variable name="Y(1,2)" index="1" value="1"/>
  <variable name="Y(18,19)" index="664" value="1"/>
  <variable name="Y(23,6)" index="841" value="1"/>
  <variable name="Y(28,11)" index="1036" value="1"/>
  <variable name="Y(60,7)" index="2248" value="1"/>
  <variable name="Y(127,1)" index="4788" value="1"/>
  <variable name="Y(131,5)" index="4944" value="1"/>
  <variable name="Y(139,14)" index="5257" value="1"/>
  <variable name="Y(177,16)" index="6703" value="1"/>
  <variable name="Y(210,13)" index="7954" value="1"/>
  <variable name="Y(230,15)" index="8716" value="1"/>
  <variable name="Y(237,3)" index="8970" value="1"/>
  <variable name="Y(242,8)" index="9165" value="1"/>
  <variable name="Y(244,10)" index="9243" value="1"/>
  <variable name="Y(250,17)" index="9478" value="1"/>
  <variable name="Y(282,12)" index="10689" value="1"/>
  <variable name="Y(292,4)" index="11061" value="1"/>
  <variable name="Y(305,18)" index="11569" value="1"/>
  <variable name="Y(333,9)" index="12624" value="1"/>
  <variable name="X(1,2,60)" index="13055" value="1"/>
  <variable name="X(1,4,28)" index="13365" value="1"/>
  <variable name="X(1,20,127)" index="13806" value="1"/>
  <variable name="X(2,1,127)" index="14148" value="1"/>
  <variable name="X(2,7,60)" index="14423" value="1"/>
  <variable name="X(2,21,1)" index="14706" value="1"/>
  <variable name="X(3,4,292)" index="15339" value="1"/>
  <variable name="X(3,11,28)" index="15417" value="1"/>
  <variable name="X(3,22,237)" index="15968" value="1"/>
  <variable name="X(4,1,60)" index="16133" value="1"/>
  <variable name="X(4,3,28)" index="16443" value="1"/>
  <variable name="X(4,23,292)" index="17049" value="1"/>
  <variable name="X(5,6,23)" index="17122" value="1"/>
  <variable name="X(5,8,242)" index="17683" value="1"/>
  <variable name="X(5,24,131)" index="17914" value="1"/>
  <variable name="X(6,5,242)" index="18367" value="1"/>
  <variable name="X(6,9,139)" index="18606" value="1"/>
  <variable name="X(6,25,23)" index="18832" value="1"/>
  <variable name="X(7,2,127)" index="19278" value="1"/>
  <variable name="X(7,8,23)" index="19516" value="1"/>
  <variable name="X(7,26,60)" index="19895" value="1"/>
  <variable name="X(8,5,23)" index="20200" value="1"/>
  <variable name="X(8,7,127)" index="20646" value="1"/>
  <variable name="X(8,27,242)" index="21103" value="1"/>
  <variable name="X(9,6,242)" index="21445" value="1"/>
  <variable name="X(9,15,139)" index="21684" value="1"/>
  <variable name="X(9,19,244)" index="22131" value="1"/>
  <variable name="X(9,28,333)" index="22562" value="1"/>
  <variable name="X(10,19,177)" index="22748" value="1"/>
  <variable name="X(10,29,244)" index="23157" value="1"/>
  <variable name="X(11,3,292)" index="23547" value="1"/>
  <variable name="X(11,19,18)" index="23615" value="1"/>
  <variable name="X(11,30,28)" index="23967" value="1"/>
  <variable name="X(12,13,210)" index="24491" value="1"/>
  <variable name="X(12,16,250)" index="24873" value="1"/>
  <variable name="X(12,31,282)" index="25247" value="1"/>
  <variable name="X(13,12,250)" index="25557" value="1"/>
  <variable name="X(13,14,139)" index="25788" value="1"/>
  <variable name="X(13,15,230)" index="26221" value="1"/>
  <variable name="X(13,32,210)" index="26543" value="1"/>
  <variable name="X(14,13,250)" index="26925" value="1"/>
  <variable name="X(14,33,139)" index="27156" value="1"/>
  <variable name="X(15,9,244)" index="27603" value="1"/>
  <variable name="X(15,13,139)" index="27840" value="1"/>
  <variable name="X(15,34,230)" index="28273" value="1"/>
  <variable name="X(16,12,282)" index="28667" value="1"/>
  <variable name="X(16,17,250)" index="28977" value="1"/>
  <variable name="X(16,35,177)" index="29246" value="1"/>
  <variable name="X(17,16,177)" index="29588" value="1"/>
  <variable name="X(17,18,305)" index="30058" value="1"/>
  <variable name="X(17,36,250)" index="30345" value="1"/>
  <variable name="X(18,17,177)" index="30614" value="1"/>
  <variable name="X(18,19,292)" index="31071" value="1"/>
  <variable name="X(18,37,305)" index="31426" value="1"/>
  <variable name="X(19,9,333)" index="31796" value="1"/>
  <variable name="X(19,10,244)" index="32049" value="1"/>
  <variable name="X(19,11,292)" index="32439" value="1"/>
  <variable name="X(19,18,177)" index="32666" value="1"/>
  <variable name="X(19,38,18)" index="32849" value="1"/>
 </variables>
</CPLEXSolution>
